50
120
96
95
93
92
90
87
87
86
86
86
85
84
83
82
78
78
78
78
77
76
76
72
72
71
70
68
65
65
62
59
58
51
42
42
40
38
38
36
34
34
33
32
30
29
29
27
26
25
24
23
